10
33
0
47
30
58
17
0
0
18
87
0
36
0
43
0
0
21
91
0
11
7
0
7
25
0
15
0
19
10
22
0
0
14
10
0
12
14
0
0
28
0
0
0
11
0
0
0
34
27
0
0
15
0
11
49
0
13
0
0
12
0
6
12
23
0
0
0
0
11
0
11
0
23
0
10
0
10
12
11
40
0
27
22
45
15
17
0
8
22
17
0
0
45
8
9
39
12
28
7
